nbNodes = 12;
nbVehi = 3;
nbServi = 5;

e = 
 [|    0,  411,  446,  479,  316,  422,  110,  268,   22,  445,  185,    0,
 |    0,   60,  274,  248,  451,  171,  425,  105,  385,   93,  471,    0,
 |    0,   65,  263,  277,  386,  155,   99,   19,  470,   57,  316,    0,
 |    0,  103,  361,  184,  327,   20,  328,  448,  433,  410,    4,    0,
 |    0,  444,  330,   26,  249,  308,  343,  374,  139,   37,  370,    0,
 |];

l = 
 [| 480, 469, 496, 524, 349, 454, 157, 298,  57, 487, 242, 480,
 | 480, 100, 325, 287, 489, 206, 478, 165, 423, 133, 510, 480,
 | 480, 115, 313, 333, 430, 210, 131,  72, 526, 107, 367, 480,
 | 480, 140, 419, 237, 374,  63, 370, 495, 485, 462,  51, 480,
 | 480, 488, 378,  67, 285, 352, 396, 411, 192,  89, 400, 480,
 |];

a = 
 [|  1,  1,  1,  1,  1,
 |  1,  1,  1,  1,  1,
 |  1,  1,  1,  1,  1,
 |];

p = array3d(1..nbNodes,1..nbVehi,1..nbServi,
[  0,  0,  0,  0,  0,	  0,  0,  0,  0,  0,	  0,  0,  0,  0,  0,	
 10, 27, 18, 24, 26,	 29, 18, 10, 22, 11,	 15, 29, 22,  5, 18,	
  7, 11, 25, 22,  7,	  8, 28, 13, 22, 23,	 16, 15,  5, 25, 26,	
 21,  7, 23,  9, 26,	 22, 11, 14, 27,  5,	 20, 13,  5, 12, 15,	
 20, 14, 23, 15,  8,	 28, 20,  9, 11, 13,	 27, 22, 25, 29, 17,	
 21, 21, 19, 17, 27,	 15,  9, 10, 24,  8,	 11, 16, 18, 11, 24,	
  6, 26, 10, 24, 14,	 14, 24, 29, 18,  5,	 14, 17, 25, 10, 16,	
 14, 28,  7, 29, 17,	  7, 16, 23, 12, 13,	 27, 18, 24, 15, 24,	
 20, 16, 23, 26, 13,	  7, 12,  7,  8, 27,	 10, 18, 14,  5, 25,	
 25, 14, 25,  5, 15,	 13,  7, 29,  8, 14,	 12,  5,  5,  8, 18,	
 26, 24,  6, 19, 22,	 14, 23, 29, 19, 27,	 26, 24, 17, 10, 26,	
  0,  0,  0,  0,  0,	  0,  0,  0,  0,  0,	  0,  0,  0,  0,  0,	
]);

rs = 
[|true,true,true,true,true,
 |false,false,true,false,false,
 |false,false,true,false,false,
 |false,false,false,false,true,
 |false,false,true,false,false,
 |true,false,false,false,false,
 |false,false,false,false,true,
 |false,true,false,false,false,
 |false,false,false,false,true,
 |false,false,false,true,false,
 |false,true,false,false,false,
 |true,true,true,true,true,
 |];

d=[|0, 22, 7, 27, 10, 26, 27, 23, 4, 22, 22, 0, 
|22, 0, 22, 18, 27, 34, 44, 21, 26, 24, 15, 22, 
|7, 22, 0, 32, 5, 19, 33, 17, 10, 28, 26, 7, 
|27, 18, 32, 0, 36, 49, 36, 38, 29, 10, 5, 27, 
|10, 27, 5, 36, 0, 16, 34, 18, 12, 33, 31, 10, 
|26, 34, 19, 49, 16, 0, 49, 15, 28, 47, 44, 26, 
|27, 44, 33, 36, 34, 49, 0, 50, 23, 26, 34, 27, 
|23, 21, 17, 38, 18, 15, 50, 0, 27, 39, 33, 23, 
|4, 26, 10, 29, 12, 28, 23, 27, 0, 22, 24, 4, 
|22, 24, 28, 10, 33, 47, 26, 39, 22, 0, 9, 22, 
|22, 15, 26, 5, 31, 44, 34, 33, 24, 9, 0, 22, 
|0, 22, 7, 27, 10, 26, 27, 23, 4, 22, 22, 0, 
|];

%coord=[ (0,0), (17,-14), (-4,-6), (27,2), (-9,-6), (-17,-20), (0,27), (-2,-23), (-2,4), (20,10), (22,1), (0,0), ];

